import Controller.dzn;
import LED.dzn;
import Siren.dzn;
import Timer.dzn;
import Sensor.dzn;

component AlarmSystem {
	provides IController iController;
	requires ITimer iTimer;
	requires IPasswordManager iPasswordManager;
	
	system {
		Controller controller;
		LED led;
		Siren siren;
		Sensor sensor;
		
		iController <=> controller.iController;
		controller.iLED <=> led.iLED;
		controller.iSiren <=> siren.iSiren;
		controller.iTimer <=> iTimer;
		controller.iSensor <=> sensor.iSensor;
		controller.iPasswordManager <=> iPasswordManager;
	}
}